param set_len = 50;
param target_sum = 12582593461;
param values := [1] 287898846 [2] 196140784 [3] 565404707 [4] 761366987 [5] 111267880 [6] 64150179 [7] 978109011 [8] 852991385 [9] 649469720 [10] 1038370700 [11] 394408090 [12] 55667763 [13] 226547889 [14] 343455425 [15] 757129988 [16] 487508659 [17] 904760898 [18] 940981211 [19] 119813474 [20] 392298157 [21] 428330305 [22] 45978724 [23] 334785193 [24] 279549176 [25] 152088096 [26] 39780456 [27] 779919761 [28] 780730823 [29] 492167735 [30] 875209559 [31] 135174311 [32] 529448331 [33] 462372949 [34] 592959472 [35] 554556995 [36] 759222460 [37] 393614594 [38] 576834394 [39] 236876472 [40] 356369128 [41] 904636221 [42] 69528035 [43] 605924631 [44] 678705690 [45] 523793126 [46] 646244472 [47] 1037660818 [48] 298414484 [49] 522017948 [50] 484012005 ;
